p cnf 7230 17
-4214 -4220 4862 -4865 0
4214 -4863 0
4220 -4863 0
-3692 -3696 -4218 4860 0
3692 -4861 0
-3686 -4212 -4858 0
-4863 4865 0
3686 -4859 0
3696 -4861 0
-4864 -4865 0
-4862 4863 0
-4860 4861 0
4858 4859 0
4212 -4859 0
4218 -4861 0
-4216 4865 0
4216 -4865 0
